WARNING: for repeatability, setting FPU to use double precision
============================[ Problem Statistics ]=============================
|                                                                             |
|  Number of variables:           616                                         |
|  Number of clauses:           13134                                         |
|  Parse time:                   0.00 s                                       |
|                                                                             |
c ============================[ Search Statistics ]==============================
c | Conflicts |          ORIGINAL         |          LEARNT          | Progress |
c |           |    Vars  Clauses Literals |    Limit  Clauses Lit/Cl |          |
c ===============================================================================
c Switched to VSIDS.
c Switched to LRB.
c Switched to VSIDS.
c Switched to LRB.
c Switched to VSIDS.
c Switched to LRB.
c Switched to VSIDS.
c Switched to LRB.
c Switched to VSIDS.
c Switched to LRB.
c Switched to VSIDS.
c Switched to LRB.
c Switched to VSIDS.
c Switched to LRB.
c Switched to VSIDS.
c Switched to LRB.
c Switched to VSIDS.
c Switched to LRB.
c Switched to VSIDS.
c Switched to LRB.
c Switched to VSIDS.
c Switched to LRB.
c Switched to VSIDS.
c Switched to LRB.
c Switched to VSIDS.
c Switched to LRB.
c Switched to VSIDS.
c Switched to LRB.
c Switched to VSIDS.
c Switched to LRB.
c Switched to VSIDS.
c Switched to LRB.
c ===============================================================================
restarts                  : 60138
conflicts                 : 19600110       (5553 /sec)
decisions                 : 26844383       (0.00 % random) (7606 /sec)
propagations              : 6219390682     (1762110 /sec)
conflict literals         : 1590023453     (12.44 % deleted)

conflicts w/ DIP found    : 7940488        (40.51 % of conflicts)
conflicts w/ dangerous DIP: 0              (0.00 % of conflicts)
conflicts w/ DIP-learning : 227580         (1.16 % of conflicts)
decisions on ext vars     : 82072          (0.31 % of decisions)
total ext vars            : 6781        
tried delete ext vars     : 0           
deleted ext vars          : 0           
max ext vars              : 6781        

Memory used               : 238.00 MB
CPU time                  : 3529.51 s
DIP computation time      : 84.1085 s (2.38 % of total time)
ER_sel time               : 23.6421 s
ER_add time               : 0.023071 s
ER_delC time              : 0 s
ER_delV time              : 0 s
ER_sub time               : 26.6968 s
ER_stat time              : 0 s

INDETERMINATE
